p edge 62 184
e 1 6
e 1 20
e 1 52
e 2 3
e 2 7
e 2 16
e 2 24
e 2 52
e 3 7
e 3 55
e 3 57
e 3 60
e 4 21
e 4 38
e 4 52
e 5 6
e 5 7
e 5 8
e 5 18
e 5 23
e 5 26
e 5 45
e 5 49
e 6 9
e 6 12
e 6 16
e 6 18
e 6 35
e 6 52
e 6 59
e 6 60
e 7 24
e 7 29
e 7 34
e 7 38
e 7 59
e 8 12
e 8 20
e 8 26
e 8 39
e 8 45
e 8 48
e 8 53
e 8 59
e 9 11
e 9 26
e 9 29
e 9 32
e 9 37
e 9 44
e 9 46
e 9 52
e 10 19
e 10 28
e 10 58
e 10 60
e 10 62
e 11 17
e 11 22
e 11 43
e 11 46
e 11 47
e 12 13
e 12 21
e 12 25
e 12 40
e 12 44
e 12 49
e 12 55
e 13 32
e 13 46
e 14 32
e 14 34
e 14 38
e 14 48
e 15 30
e 15 38
e 15 45
e 15 58
e 16 19
e 16 39
e 16 42
e 16 47
e 16 48
e 16 49
e 16 58
e 16 59
e 16 60
e 17 25
e 17 32
e 17 44
e 17 56
e 17 62
e 18 22
e 18 28
e 18 54
e 19 36
e 19 37
e 19 54
e 20 26
e 20 31
e 20 34
e 20 42
e 20 50
e 20 55
e 20 61
e 21 22
e 21 23
e 21 28
e 21 49
e 21 62
e 22 29
e 23 25
e 23 43
e 24 28
e 24 49
e 24 54
e 24 57
e 25 26
e 25 28
e 25 42
e 25 53
e 25 61
e 26 33
e 26 42
e 26 46
e 26 48
e 26 49
e 26 61
e 27 41
e 28 30
e 28 34
e 28 43
e 28 46
e 28 59
e 29 42
e 29 47
e 29 51
e 30 34
e 30 43
e 30 57
e 30 62
e 31 41
e 31 44
e 31 45
e 31 57
e 31 59
e 32 36
e 32 44
e 32 46
e 32 49
e 32 61
e 33 34
e 33 45
e 34 36
e 34 43
e 34 44
e 34 48
e 34 50
e 34 55
e 34 60
e 36 42
e 36 49
e 36 52
e 37 41
e 37 58
e 38 45
e 39 41
e 40 57
e 41 61
e 42 48
e 43 45
e 43 49
e 46 60
e 47 55
e 48 51
e 48 55
e 49 56
e 50 58
e 52 60
e 53 54
e 56 61
e 56 62
e 58 61
